\* SCM *\
Minimize
Total_cost: 0.1 LF_t1_f1_g1 + 0.02 LF_t1_f1_p1 + 0.02 LF_t1_f1_p2
 + 0.02 LF_t1_f1_p3 + 0.09 LF_t1_f2_g1 + 0.01 LF_t1_f2_p1 + 0.01 LF_t1_f2_p2
 + 0.01 LF_t1_f2_p3 + 0.1 LF_t2_f1_g1 + 0.02 LF_t2_f1_p1 + 0.02 LF_t2_f1_p2
 + 0.02 LF_t2_f1_p3 + 0.09 LF_t2_f2_g1 + 0.01 LF_t2_f2_p1 + 0.01 LF_t2_f2_p2
 + 0.01 LF_t2_f2_p3 + 0.1 LF_t3_f1_g1 + 0.02 LF_t3_f1_p1 + 0.02 LF_t3_f1_p2
 + 0.02 LF_t3_f1_p3 + 0.09 LF_t3_f2_g1 + 0.01 LF_t3_f2_p1 + 0.01 LF_t3_f2_p2
 + 0.01 LF_t3_f2_p3 + 0.1 LF_t4_f1_g1 + 0.02 LF_t4_f1_p1 + 0.02 LF_t4_f1_p2
 + 0.02 LF_t4_f1_p3 + 0.09 LF_t4_f2_g1 + 0.01 LF_t4_f2_p1 + 0.01 LF_t4_f2_p2
 + 0.01 LF_t4_f2_p3 + 0.1 LF_t5_f1_g1 + 0.02 LF_t5_f1_p1 + 0.02 LF_t5_f1_p2
 + 0.02 LF_t5_f1_p3 + 0.09 LF_t5_f2_g1 + 0.01 LF_t5_f2_p1 + 0.01 LF_t5_f2_p2
 + 0.01 LF_t5_f2_p3 + 10.5 LV_t1_t11 + 6.5 LV_t1_t12 + 8.5 LV_t1_t13
 + 20.5 LV_t1_t21 + 7.5 LV_t1_t22 + 7.5 LV_t1_t23 + 10.4 LV_t2_t11
 + 6.4 LV_t2_t12 + 8.4 LV_t2_t13 + 20.4 LV_t2_t21 + 7.4 LV_t2_t22
 + 7.4 LV_t2_t23 + 10.3 LV_t3_t11 + 6.3 LV_t3_t12 + 8.3 LV_t3_t13
 + 20.3 LV_t3_t21 + 7.3 LV_t3_t22 + 7.3 LV_t3_t23 + 10.2 LV_t4_t11
 + 6.2 LV_t4_t12 + 8.2 LV_t4_t13 + 20.2 LV_t4_t21 + 7.2 LV_t4_t22
 + 7.2 LV_t4_t23 + 10.1 LV_t5_t11 + 6.1 LV_t5_t12 + 8.1 LV_t5_t13
 + 20.1 LV_t5_t21 + 7.1 LV_t5_t22 + 7.1 LV_t5_t23 + 0.07 LW_t1_w1_g1
 + 0.05 LW_t1_w2_g1 + 0.07 LW_t2_w1_g1 + 0.05 LW_t2_w2_g1 + 0.07 LW_t3_w1_g1
 + 0.05 LW_t3_w2_g1 + 0.07 LW_t4_w1_g1 + 0.05 LW_t4_w2_g1 + 0.07 LW_t5_w1_g1
 + 0.05 LW_t5_w2_g1 + 0.4 R_t1_f1_g1 + 0.2 R_t1_f1_w1_g1 + 0.3 R_t1_f1_w2_g1
 + 0.45 R_t1_f2_g1 + 0.5 R_t1_f2_w1_g1 + 0.1 R_t1_f2_w2_g1
 + 0.01 R_t1_v1_f1_p1 + 0.01 R_t1_v1_f1_p2 + 0.01 R_t1_v1_f1_p3
 + 0.01 R_t1_v1_f2_p1 + 0.01 R_t1_v1_f2_p2 + 0.01 R_t1_v1_f2_p3
 + 0.01 R_t1_v2_f1_p1 + 0.01 R_t1_v2_f1_p2 + 0.01 R_t1_v2_f1_p3
 + 0.01 R_t1_v2_f2_p1 + 0.01 R_t1_v2_f2_p2 + 0.01 R_t1_v2_f2_p3
 + 0.6 R_t1_w1_c1_g1 + 0.4 R_t1_w1_c2_g1 + 0.3 R_t1_w1_c3_g1
 + 0.3 R_t1_w2_c1_g1 + 0.5 R_t1_w2_c2_g1 + 0.4 R_t1_w2_c3_g1 + 0.4 R_t2_f1_g1
 + 0.2 R_t2_f1_w1_g1 + 0.3 R_t2_f1_w2_g1 + 0.45 R_t2_f2_g1 + 0.5 R_t2_f2_w1_g1
 + 0.1 R_t2_f2_w2_g1 + 0.01 R_t2_v1_f1_p1 + 0.01 R_t2_v1_f1_p2
 + 0.01 R_t2_v1_f1_p3 + 0.01 R_t2_v1_f2_p1 + 0.01 R_t2_v1_f2_p2
 + 0.01 R_t2_v1_f2_p3 + 0.01 R_t2_v2_f1_p1 + 0.01 R_t2_v2_f1_p2
 + 0.01 R_t2_v2_f1_p3 + 0.01 R_t2_v2_f2_p1 + 0.01 R_t2_v2_f2_p2
 + 0.01 R_t2_v2_f2_p3 + 0.6 R_t2_w1_c1_g1 + 0.4 R_t2_w1_c2_g1
 + 0.3 R_t2_w1_c3_g1 + 0.3 R_t2_w2_c1_g1 + 0.5 R_t2_w2_c2_g1
 + 0.4 R_t2_w2_c3_g1 + 0.4 R_t3_f1_g1 + 0.2 R_t3_f1_w1_g1 + 0.3 R_t3_f1_w2_g1
 + 0.45 R_t3_f2_g1 + 0.5 R_t3_f2_w1_g1 + 0.1 R_t3_f2_w2_g1
 + 0.01 R_t3_v1_f1_p1 + 0.01 R_t3_v1_f1_p2 + 0.01 R_t3_v1_f1_p3
 + 0.01 R_t3_v1_f2_p1 + 0.01 R_t3_v1_f2_p2 + 0.01 R_t3_v1_f2_p3
 + 0.01 R_t3_v2_f1_p1 + 0.01 R_t3_v2_f1_p2 + 0.01 R_t3_v2_f1_p3
 + 0.01 R_t3_v2_f2_p1 + 0.01 R_t3_v2_f2_p2 + 0.01 R_t3_v2_f2_p3
 + 0.6 R_t3_w1_c1_g1 + 0.4 R_t3_w1_c2_g1 + 0.3 R_t3_w1_c3_g1
 + 0.3 R_t3_w2_c1_g1 + 0.5 R_t3_w2_c2_g1 + 0.4 R_t3_w2_c3_g1 + 0.4 R_t4_f1_g1
 + 0.2 R_t4_f1_w1_g1 + 0.3 R_t4_f1_w2_g1 + 0.45 R_t4_f2_g1 + 0.5 R_t4_f2_w1_g1
 + 0.1 R_t4_f2_w2_g1 + 0.01 R_t4_v1_f1_p1 + 0.01 R_t4_v1_f1_p2
 + 0.01 R_t4_v1_f1_p3 + 0.01 R_t4_v1_f2_p1 + 0.01 R_t4_v1_f2_p2
 + 0.01 R_t4_v1_f2_p3 + 0.01 R_t4_v2_f1_p1 + 0.01 R_t4_v2_f1_p2
 + 0.01 R_t4_v2_f1_p3 + 0.01 R_t4_v2_f2_p1 + 0.01 R_t4_v2_f2_p2
 + 0.01 R_t4_v2_f2_p3 + 0.6 R_t4_w1_c1_g1 + 0.4 R_t4_w1_c2_g1
 + 0.3 R_t4_w1_c3_g1 + 0.3 R_t4_w2_c1_g1 + 0.5 R_t4_w2_c2_g1
 + 0.4 R_t4_w2_c3_g1 + 0.4 R_t5_f1_g1 + 0.2 R_t5_f1_w1_g1 + 0.3 R_t5_f1_w2_g1
 + 0.45 R_t5_f2_g1 + 0.5 R_t5_f2_w1_g1 + 0.1 R_t5_f2_w2_g1
 + 0.01 R_t5_v1_f1_p1 + 0.01 R_t5_v1_f1_p2 + 0.01 R_t5_v1_f1_p3
 + 0.01 R_t5_v1_f2_p1 + 0.01 R_t5_v1_f2_p2 + 0.01 R_t5_v1_f2_p3
 + 0.01 R_t5_v2_f1_p1 + 0.01 R_t5_v2_f1_p2 + 0.01 R_t5_v2_f1_p3
 + 0.01 R_t5_v2_f2_p1 + 0.01 R_t5_v2_f2_p2 + 0.01 R_t5_v2_f2_p3
 + 0.6 R_t5_w1_c1_g1 + 0.4 R_t5_w1_c2_g1 + 0.3 R_t5_w1_c3_g1
 + 0.3 R_t5_w2_c1_g1 + 0.5 R_t5_w2_c2_g1 + 0.4 R_t5_w2_c3_g1
Subject To
Constraint1: LV_t1_t11 - R_t1_v1_f1_p1 - R_t1_v1_f2_p1 = 0
Constraint10: LV_t2_t21 - R_t2_v2_f1_p1 - R_t2_v2_f2_p1 = 0
Constraint11: LV_t2_t22 - R_t2_v2_f1_p2 - R_t2_v2_f2_p2 = 0
Constraint12: LV_t2_t23 - R_t2_v2_f1_p3 - R_t2_v2_f2_p3 = 0
Constraint13: LV_t3_t11 - R_t3_v1_f1_p1 - R_t3_v1_f2_p1 = 0
Constraint14: LV_t3_t12 - R_t3_v1_f1_p2 - R_t3_v1_f2_p2 = 0
Constraint15: LV_t3_t13 - R_t3_v1_f1_p3 - R_t3_v1_f2_p3 = 0
Constraint16: LV_t3_t21 - R_t3_v2_f1_p1 - R_t3_v2_f2_p1 = 0
Constraint17: LV_t3_t22 - R_t3_v2_f1_p2 - R_t3_v2_f2_p2 = 0
Constraint18: LV_t3_t23 - R_t3_v2_f1_p3 - R_t3_v2_f2_p3 = 0
Constraint19: LV_t4_t11 - R_t4_v1_f1_p1 - R_t4_v1_f2_p1 = 0
Constraint2: LV_t1_t12 - R_t1_v1_f1_p2 - R_t1_v1_f2_p2 = 0
Constraint20: LV_t4_t12 - R_t4_v1_f1_p2 - R_t4_v1_f2_p2 = 0
Constraint21: LV_t4_t13 - R_t4_v1_f1_p3 - R_t4_v1_f2_p3 = 0
Constraint22: LV_t4_t21 - R_t4_v2_f1_p1 - R_t4_v2_f2_p1 = 0
Constraint23: LV_t4_t22 - R_t4_v2_f1_p2 - R_t4_v2_f2_p2 = 0
Constraint24: LV_t4_t23 - R_t4_v2_f1_p3 - R_t4_v2_f2_p3 = 0
Constraint25: LV_t5_t11 - R_t5_v1_f1_p1 - R_t5_v1_f2_p1 = 0
Constraint26: LV_t5_t12 - R_t5_v1_f1_p2 - R_t5_v1_f2_p2 = 0
Constraint27: LV_t5_t13 - R_t5_v1_f1_p3 - R_t5_v1_f2_p3 = 0
Constraint28: LV_t5_t21 - R_t5_v2_f1_p1 - R_t5_v2_f2_p1 = 0
Constraint29: LV_t5_t22 - R_t5_v2_f1_p2 - R_t5_v2_f2_p2 = 0
Constraint3: LV_t1_t13 - R_t1_v1_f1_p3 - R_t1_v1_f2_p3 = 0
Constraint30: LV_t5_t23 - R_t5_v2_f1_p3 - R_t5_v2_f2_p3 = 0
Constraint31: LF_t1_f1_p1 - LF_t2_f1_p1 - R_t1_f1_g1 = 0
Constraint32: LF_t1_f1_p2 - LF_t2_f1_p2 - 2 R_t1_f1_g1 = 0
Constraint33: LF_t1_f1_p3 - LF_t2_f1_p3 - 3 R_t1_f1_g1 = 0
Constraint34: LF_t1_f2_p1 - LF_t2_f2_p1 - R_t1_f2_g1 = 0
Constraint35: LF_t1_f2_p2 - LF_t2_f2_p2 - 2 R_t1_f2_g1 = 0
Constraint36: LF_t1_f2_p3 - LF_t2_f2_p3 - 3 R_t1_f2_g1 = 0
Constraint37: LF_t2_f1_p1 - LF_t3_f1_p1 + R_t1_v1_f1_p1 + R_t1_v2_f1_p1
 - R_t2_f1_g1 = 0
Constraint38: LF_t2_f1_p2 - LF_t3_f1_p2 + R_t1_v1_f1_p2 + R_t1_v2_f1_p2
 - 2 R_t2_f1_g1 = 0
Constraint39: LF_t2_f1_p3 - LF_t3_f1_p3 + R_t1_v1_f1_p3 + R_t1_v2_f1_p3
 - 3 R_t2_f1_g1 = 0
Constraint4: LV_t1_t21 - R_t1_v2_f1_p1 - R_t1_v2_f2_p1 = 0
Constraint40: LF_t2_f2_p1 - LF_t3_f2_p1 + R_t1_v1_f2_p1 + R_t1_v2_f2_p1
 - R_t2_f2_g1 = 0
Constraint41: LF_t2_f2_p2 - LF_t3_f2_p2 + R_t1_v1_f2_p2 + R_t1_v2_f2_p2
 - 2 R_t2_f2_g1 = 0
Constraint42: LF_t2_f2_p3 - LF_t3_f2_p3 + R_t1_v1_f2_p3 + R_t1_v2_f2_p3
 - 3 R_t2_f2_g1 = 0
Constraint43: LF_t3_f1_p1 - LF_t4_f1_p1 + R_t2_v1_f1_p1 + R_t2_v2_f1_p1
 - R_t3_f1_g1 = 0
Constraint44: LF_t3_f1_p2 - LF_t4_f1_p2 + R_t2_v1_f1_p2 + R_t2_v2_f1_p2
 - 2 R_t3_f1_g1 = 0
Constraint45: LF_t3_f1_p3 - LF_t4_f1_p3 + R_t2_v1_f1_p3 + R_t2_v2_f1_p3
 - 3 R_t3_f1_g1 = 0
Constraint46: LF_t3_f2_p1 - LF_t4_f2_p1 + R_t2_v1_f2_p1 + R_t2_v2_f2_p1
 - R_t3_f2_g1 = 0
Constraint47: LF_t3_f2_p2 - LF_t4_f2_p2 + R_t2_v1_f2_p2 + R_t2_v2_f2_p2
 - 2 R_t3_f2_g1 = 0
Constraint48: LF_t3_f2_p3 - LF_t4_f2_p3 + R_t2_v1_f2_p3 + R_t2_v2_f2_p3
 - 3 R_t3_f2_g1 = 0
Constraint49: LF_t4_f1_p1 - LF_t5_f1_p1 + R_t3_v1_f1_p1 + R_t3_v2_f1_p1
 - R_t4_f1_g1 = 0
Constraint5: LV_t1_t22 - R_t1_v2_f1_p2 - R_t1_v2_f2_p2 = 0
Constraint50: LF_t4_f1_p2 - LF_t5_f1_p2 + R_t3_v1_f1_p2 + R_t3_v2_f1_p2
 - 2 R_t4_f1_g1 = 0
Constraint51: LF_t4_f1_p3 - LF_t5_f1_p3 + R_t3_v1_f1_p3 + R_t3_v2_f1_p3
 - 3 R_t4_f1_g1 = 0
Constraint52: LF_t4_f2_p1 - LF_t5_f2_p1 + R_t3_v1_f2_p1 + R_t3_v2_f2_p1
 - R_t4_f2_g1 = 0
Constraint53: LF_t4_f2_p2 - LF_t5_f2_p2 + R_t3_v1_f2_p2 + R_t3_v2_f2_p2
 - 2 R_t4_f2_g1 = 0
Constraint54: LF_t4_f2_p3 - LF_t5_f2_p3 + R_t3_v1_f2_p3 + R_t3_v2_f2_p3
 - 3 R_t4_f2_g1 = 0
Constraint55: LF_t1_f1_g1 - LF_t2_f1_g1 - R_t1_f1_w1_g1 - R_t1_f1_w2_g1 = 0
Constraint56: LF_t1_f2_g1 - LF_t2_f2_g1 - R_t1_f2_w1_g1 - R_t1_f2_w2_g1 = 0
Constraint57: LF_t2_f1_g1 - LF_t3_f1_g1 + R_t1_f1_g1 - R_t2_f1_w1_g1
 - R_t2_f1_w2_g1 = 0
Constraint58: LF_t2_f2_g1 - LF_t3_f2_g1 + R_t1_f2_g1 - R_t2_f2_w1_g1
 - R_t2_f2_w2_g1 = 0
Constraint59: LF_t3_f1_g1 - LF_t4_f1_g1 + R_t2_f1_g1 - R_t3_f1_w1_g1
 - R_t3_f1_w2_g1 = 0
Constraint6: LV_t1_t23 - R_t1_v2_f1_p3 - R_t1_v2_f2_p3 = 0
Constraint60: LF_t3_f2_g1 - LF_t4_f2_g1 + R_t2_f2_g1 - R_t3_f2_w1_g1
 - R_t3_f2_w2_g1 = 0
Constraint61: LF_t4_f1_g1 - LF_t5_f1_g1 + R_t3_f1_g1 - R_t4_f1_w1_g1
 - R_t4_f1_w2_g1 = 0
Constraint62: LF_t4_f2_g1 - LF_t5_f2_g1 + R_t3_f2_g1 - R_t4_f2_w1_g1
 - R_t4_f2_w2_g1 = 0
Constraint63: LW_t1_w1_g1 - LW_t2_w1_g1 - R_t1_w1_c1_g1 - R_t1_w1_c2_g1
 - R_t1_w1_c3_g1 = 0
Constraint64: LW_t1_w2_g1 - LW_t2_w2_g1 - R_t1_w2_c1_g1 - R_t1_w2_c2_g1
 - R_t1_w2_c3_g1 = 0
Constraint65: LW_t2_w1_g1 - LW_t3_w1_g1 + R_t1_f1_w1_g1 + R_t1_f2_w1_g1
 - R_t2_w1_c1_g1 - R_t2_w1_c2_g1 - R_t2_w1_c3_g1 = 0
Constraint66: LW_t2_w2_g1 - LW_t3_w2_g1 + R_t1_f1_w2_g1 + R_t1_f2_w2_g1
 - R_t2_w2_c1_g1 - R_t2_w2_c2_g1 - R_t2_w2_c3_g1 = 0
Constraint67: LW_t3_w1_g1 - LW_t4_w1_g1 + R_t2_f1_w1_g1 + R_t2_f2_w1_g1
 - R_t3_w1_c1_g1 - R_t3_w1_c2_g1 - R_t3_w1_c3_g1 = 0
Constraint68: LW_t3_w2_g1 - LW_t4_w2_g1 + R_t2_f1_w2_g1 + R_t2_f2_w2_g1
 - R_t3_w2_c1_g1 - R_t3_w2_c2_g1 - R_t3_w2_c3_g1 = 0
Constraint69: LW_t4_w1_g1 - LW_t5_w1_g1 + R_t3_f1_w1_g1 + R_t3_f2_w1_g1
 - R_t4_w1_c1_g1 - R_t4_w1_c2_g1 - R_t4_w1_c3_g1 = 0
Constraint7: LV_t2_t11 - R_t2_v1_f1_p1 - R_t2_v1_f2_p1 = 0
Constraint70: LW_t4_w2_g1 - LW_t5_w2_g1 + R_t3_f1_w2_g1 + R_t3_f2_w2_g1
 - R_t4_w2_c1_g1 - R_t4_w2_c2_g1 - R_t4_w2_c3_g1 = 0
Constraint8: LV_t2_t12 - R_t2_v1_f1_p2 - R_t2_v1_f2_p2 = 0
Constraint83: LF_t1_f1_p1 = 200
Constraint84: LF_t1_f1_p2 = 300
Constraint85: LF_t1_f1_p3 = 300
Constraint86: LF_t1_f2_p1 = 100
Constraint87: LF_t1_f2_p2 = 100
Constraint88: LF_t1_f2_p3 = 100
Constraint89: LF_t1_f1_g1 = 0
Constraint9: LV_t2_t13 - R_t2_v1_f1_p3 - R_t2_v1_f2_p3 = 0
Constraint90: LF_t1_f2_g1 = 0
Constraint91: LW_t1_w1_g1 = 0
Constraint92: LW_t1_w2_g1 = 0
Constraints71: R_t1_w1_c1_g1 + R_t1_w2_c1_g1 = 0
Constraints72: R_t1_w1_c2_g1 + R_t1_w2_c2_g1 = 0
Constraints73: R_t1_w1_c3_g1 + R_t1_w2_c3_g1 = 0
Constraints74: R_t2_w1_c1_g1 + R_t2_w2_c1_g1 = 0
Constraints75: R_t2_w1_c2_g1 + R_t2_w2_c2_g1 = 0
Constraints76: R_t2_w1_c3_g1 + R_t2_w2_c3_g1 = 0
Constraints77: R_t3_w1_c1_g1 + R_t3_w2_c1_g1 = 30
Constraints78: R_t3_w1_c2_g1 + R_t3_w2_c2_g1 = 20
Constraints79: R_t3_w1_c3_g1 + R_t3_w2_c3_g1 = 10
Constraints80: R_t4_w1_c1_g1 + R_t4_w2_c1_g1 = 55
Constraints81: R_t4_w1_c2_g1 + R_t4_w2_c2_g1 = 40
Constraints82: R_t4_w1_c3_g1 + R_t4_w2_c3_g1 = 50
Bounds
0 <= LF_t1_f1_g1
0 <= LF_t1_f1_p1
0 <= LF_t1_f1_p2
0 <= LF_t1_f1_p3
0 <= LF_t1_f2_g1
0 <= LF_t1_f2_p1
0 <= LF_t1_f2_p2
0 <= LF_t1_f2_p3
0 <= LF_t2_f1_g1
0 <= LF_t2_f1_p1
0 <= LF_t2_f1_p2
0 <= LF_t2_f1_p3
0 <= LF_t2_f2_g1
0 <= LF_t2_f2_p1
0 <= LF_t2_f2_p2
0 <= LF_t2_f2_p3
0 <= LF_t3_f1_g1
0 <= LF_t3_f1_p1
0 <= LF_t3_f1_p2
0 <= LF_t3_f1_p3
0 <= LF_t3_f2_g1
0 <= LF_t3_f2_p1
0 <= LF_t3_f2_p2
0 <= LF_t3_f2_p3
0 <= LF_t4_f1_g1
0 <= LF_t4_f1_p1
0 <= LF_t4_f1_p2
0 <= LF_t4_f1_p3
0 <= LF_t4_f2_g1
0 <= LF_t4_f2_p1
0 <= LF_t4_f2_p2
0 <= LF_t4_f2_p3
0 <= LF_t5_f1_g1
0 <= LF_t5_f1_p1
0 <= LF_t5_f1_p2
0 <= LF_t5_f1_p3
0 <= LF_t5_f2_g1
0 <= LF_t5_f2_p1
0 <= LF_t5_f2_p2
0 <= LF_t5_f2_p3
0 <= LV_t1_t11 <= 500
0 <= LV_t1_t12 <= 500
0 <= LV_t1_t13 <= 500
0 <= LV_t1_t21 <= 500
0 <= LV_t1_t22 <= 500
0 <= LV_t1_t23 <= 500
0 <= LV_t2_t11 <= 500
0 <= LV_t2_t12 <= 500
0 <= LV_t2_t13 <= 500
0 <= LV_t2_t21 <= 500
0 <= LV_t2_t22 <= 500
0 <= LV_t2_t23 <= 500
0 <= LV_t3_t11 <= 500
0 <= LV_t3_t12 <= 500
0 <= LV_t3_t13 <= 500
0 <= LV_t3_t21 <= 500
0 <= LV_t3_t22 <= 500
0 <= LV_t3_t23 <= 500
0 <= LV_t4_t11 <= 500
0 <= LV_t4_t12 <= 500
0 <= LV_t4_t13 <= 500
0 <= LV_t4_t21 <= 500
0 <= LV_t4_t22 <= 500
0 <= LV_t4_t23 <= 500
0 <= LV_t5_t11 <= 500
0 <= LV_t5_t12 <= 500
0 <= LV_t5_t13 <= 500
0 <= LV_t5_t21 <= 500
0 <= LV_t5_t22 <= 500
0 <= LV_t5_t23 <= 500
0 <= LW_t1_w1_g1 <= 400
0 <= LW_t1_w2_g1 <= 500
0 <= LW_t2_w1_g1 <= 400
0 <= LW_t2_w2_g1 <= 500
0 <= LW_t3_w1_g1 <= 400
0 <= LW_t3_w2_g1 <= 500
0 <= LW_t4_w1_g1 <= 400
0 <= LW_t4_w2_g1 <= 500
0 <= LW_t5_w1_g1 <= 400
0 <= LW_t5_w2_g1 <= 500
0 <= R_t1_f1_g1 <= 70
0 <= R_t1_f1_w1_g1
0 <= R_t1_f1_w2_g1
0 <= R_t1_f2_g1 <= 35
0 <= R_t1_f2_w1_g1
0 <= R_t1_f2_w2_g1
0 <= R_t1_v1_f1_p1
0 <= R_t1_v1_f1_p2
0 <= R_t1_v1_f1_p3
0 <= R_t1_v1_f2_p1
0 <= R_t1_v1_f2_p2
0 <= R_t1_v1_f2_p3
0 <= R_t1_v2_f1_p1
0 <= R_t1_v2_f1_p2
0 <= R_t1_v2_f1_p3
0 <= R_t1_v2_f2_p1
0 <= R_t1_v2_f2_p2
0 <= R_t1_v2_f2_p3
0 <= R_t1_w1_c1_g1
0 <= R_t1_w1_c2_g1
0 <= R_t1_w1_c3_g1
0 <= R_t1_w2_c1_g1
0 <= R_t1_w2_c2_g1
0 <= R_t1_w2_c3_g1
0 <= R_t2_f1_g1 <= 70
0 <= R_t2_f1_w1_g1
0 <= R_t2_f1_w2_g1
0 <= R_t2_f2_g1 <= 35
0 <= R_t2_f2_w1_g1
0 <= R_t2_f2_w2_g1
0 <= R_t2_v1_f1_p1
0 <= R_t2_v1_f1_p2
0 <= R_t2_v1_f1_p3
0 <= R_t2_v1_f2_p1
0 <= R_t2_v1_f2_p2
0 <= R_t2_v1_f2_p3
0 <= R_t2_v2_f1_p1
0 <= R_t2_v2_f1_p2
0 <= R_t2_v2_f1_p3
0 <= R_t2_v2_f2_p1
0 <= R_t2_v2_f2_p2
0 <= R_t2_v2_f2_p3
0 <= R_t2_w1_c1_g1
0 <= R_t2_w1_c2_g1
0 <= R_t2_w1_c3_g1
0 <= R_t2_w2_c1_g1
0 <= R_t2_w2_c2_g1
0 <= R_t2_w2_c3_g1
0 <= R_t3_f1_g1 <= 70
0 <= R_t3_f1_w1_g1
0 <= R_t3_f1_w2_g1
0 <= R_t3_f2_g1 <= 35
0 <= R_t3_f2_w1_g1
0 <= R_t3_f2_w2_g1
0 <= R_t3_v1_f1_p1
0 <= R_t3_v1_f1_p2
0 <= R_t3_v1_f1_p3
0 <= R_t3_v1_f2_p1
0 <= R_t3_v1_f2_p2
0 <= R_t3_v1_f2_p3
0 <= R_t3_v2_f1_p1
0 <= R_t3_v2_f1_p2
0 <= R_t3_v2_f1_p3
0 <= R_t3_v2_f2_p1
0 <= R_t3_v2_f2_p2
0 <= R_t3_v2_f2_p3
0 <= R_t3_w1_c1_g1
0 <= R_t3_w1_c2_g1
0 <= R_t3_w1_c3_g1
0 <= R_t3_w2_c1_g1
0 <= R_t3_w2_c2_g1
0 <= R_t3_w2_c3_g1
0 <= R_t4_f1_g1 <= 70
0 <= R_t4_f1_w1_g1
0 <= R_t4_f1_w2_g1
0 <= R_t4_f2_g1 <= 35
0 <= R_t4_f2_w1_g1
0 <= R_t4_f2_w2_g1
0 <= R_t4_v1_f1_p1
0 <= R_t4_v1_f1_p2
0 <= R_t4_v1_f1_p3
0 <= R_t4_v1_f2_p1
0 <= R_t4_v1_f2_p2
0 <= R_t4_v1_f2_p3
0 <= R_t4_v2_f1_p1
0 <= R_t4_v2_f1_p2
0 <= R_t4_v2_f1_p3
0 <= R_t4_v2_f2_p1
0 <= R_t4_v2_f2_p2
0 <= R_t4_v2_f2_p3
0 <= R_t4_w1_c1_g1
0 <= R_t4_w1_c2_g1
0 <= R_t4_w1_c3_g1
0 <= R_t4_w2_c1_g1
0 <= R_t4_w2_c2_g1
0 <= R_t4_w2_c3_g1
0 <= R_t5_f1_g1 <= 70
0 <= R_t5_f1_w1_g1
0 <= R_t5_f1_w2_g1
0 <= R_t5_f2_g1 <= 35
0 <= R_t5_f2_w1_g1
0 <= R_t5_f2_w2_g1
0 <= R_t5_v1_f1_p1
0 <= R_t5_v1_f1_p2
0 <= R_t5_v1_f1_p3
0 <= R_t5_v1_f2_p1
0 <= R_t5_v1_f2_p2
0 <= R_t5_v1_f2_p3
0 <= R_t5_v2_f1_p1
0 <= R_t5_v2_f1_p2
0 <= R_t5_v2_f1_p3
0 <= R_t5_v2_f2_p1
0 <= R_t5_v2_f2_p2
0 <= R_t5_v2_f2_p3
0 <= R_t5_w1_c1_g1
0 <= R_t5_w1_c2_g1
0 <= R_t5_w1_c3_g1
0 <= R_t5_w2_c1_g1
0 <= R_t5_w2_c2_g1
0 <= R_t5_w2_c3_g1
Generals
LF_t1_f1_g1
LF_t1_f1_p1
LF_t1_f1_p2
LF_t1_f1_p3
LF_t1_f2_g1
LF_t1_f2_p1
LF_t1_f2_p2
LF_t1_f2_p3
LF_t2_f1_g1
LF_t2_f1_p1
LF_t2_f1_p2
LF_t2_f1_p3
LF_t2_f2_g1
LF_t2_f2_p1
LF_t2_f2_p2
LF_t2_f2_p3
LF_t3_f1_g1
LF_t3_f1_p1
LF_t3_f1_p2
LF_t3_f1_p3
LF_t3_f2_g1
LF_t3_f2_p1
LF_t3_f2_p2
LF_t3_f2_p3
LF_t4_f1_g1
LF_t4_f1_p1
LF_t4_f1_p2
LF_t4_f1_p3
LF_t4_f2_g1
LF_t4_f2_p1
LF_t4_f2_p2
LF_t4_f2_p3
LF_t5_f1_g1
LF_t5_f1_p1
LF_t5_f1_p2
LF_t5_f1_p3
LF_t5_f2_g1
LF_t5_f2_p1
LF_t5_f2_p2
LF_t5_f2_p3
LV_t1_t11
LV_t1_t12
LV_t1_t13
LV_t1_t21
LV_t1_t22
LV_t1_t23
LV_t2_t11
LV_t2_t12
LV_t2_t13
LV_t2_t21
LV_t2_t22
LV_t2_t23
LV_t3_t11
LV_t3_t12
LV_t3_t13
LV_t3_t21
LV_t3_t22
LV_t3_t23
LV_t4_t11
LV_t4_t12
LV_t4_t13
LV_t4_t21
LV_t4_t22
LV_t4_t23
LV_t5_t11
LV_t5_t12
LV_t5_t13
LV_t5_t21
LV_t5_t22
LV_t5_t23
LW_t1_w1_g1
LW_t1_w2_g1
LW_t2_w1_g1
LW_t2_w2_g1
LW_t3_w1_g1
LW_t3_w2_g1
LW_t4_w1_g1
LW_t4_w2_g1
LW_t5_w1_g1
LW_t5_w2_g1
R_t1_f1_g1
R_t1_f1_w1_g1
R_t1_f1_w2_g1
R_t1_f2_g1
R_t1_f2_w1_g1
R_t1_f2_w2_g1
R_t1_v1_f1_p1
R_t1_v1_f1_p2
R_t1_v1_f1_p3
R_t1_v1_f2_p1
R_t1_v1_f2_p2
R_t1_v1_f2_p3
R_t1_v2_f1_p1
R_t1_v2_f1_p2
R_t1_v2_f1_p3
R_t1_v2_f2_p1
R_t1_v2_f2_p2
R_t1_v2_f2_p3
R_t1_w1_c1_g1
R_t1_w1_c2_g1
R_t1_w1_c3_g1
R_t1_w2_c1_g1
R_t1_w2_c2_g1
R_t1_w2_c3_g1
R_t2_f1_g1
R_t2_f1_w1_g1
R_t2_f1_w2_g1
R_t2_f2_g1
R_t2_f2_w1_g1
R_t2_f2_w2_g1
R_t2_v1_f1_p1
R_t2_v1_f1_p2
R_t2_v1_f1_p3
R_t2_v1_f2_p1
R_t2_v1_f2_p2
R_t2_v1_f2_p3
R_t2_v2_f1_p1
R_t2_v2_f1_p2
R_t2_v2_f1_p3
R_t2_v2_f2_p1
R_t2_v2_f2_p2
R_t2_v2_f2_p3
R_t2_w1_c1_g1
R_t2_w1_c2_g1
R_t2_w1_c3_g1
R_t2_w2_c1_g1
R_t2_w2_c2_g1
R_t2_w2_c3_g1
R_t3_f1_g1
R_t3_f1_w1_g1
R_t3_f1_w2_g1
R_t3_f2_g1
R_t3_f2_w1_g1
R_t3_f2_w2_g1
R_t3_v1_f1_p1
R_t3_v1_f1_p2
R_t3_v1_f1_p3
R_t3_v1_f2_p1
R_t3_v1_f2_p2
R_t3_v1_f2_p3
R_t3_v2_f1_p1
R_t3_v2_f1_p2
R_t3_v2_f1_p3
R_t3_v2_f2_p1
R_t3_v2_f2_p2
R_t3_v2_f2_p3
R_t3_w1_c1_g1
R_t3_w1_c2_g1
R_t3_w1_c3_g1
R_t3_w2_c1_g1
R_t3_w2_c2_g1
R_t3_w2_c3_g1
R_t4_f1_g1
R_t4_f1_w1_g1
R_t4_f1_w2_g1
R_t4_f2_g1
R_t4_f2_w1_g1
R_t4_f2_w2_g1
R_t4_v1_f1_p1
R_t4_v1_f1_p2
R_t4_v1_f1_p3
R_t4_v1_f2_p1
R_t4_v1_f2_p2
R_t4_v1_f2_p3
R_t4_v2_f1_p1
R_t4_v2_f1_p2
R_t4_v2_f1_p3
R_t4_v2_f2_p1
R_t4_v2_f2_p2
R_t4_v2_f2_p3
R_t4_w1_c1_g1
R_t4_w1_c2_g1
R_t4_w1_c3_g1
R_t4_w2_c1_g1
R_t4_w2_c2_g1
R_t4_w2_c3_g1
R_t5_f1_g1
R_t5_f1_w1_g1
R_t5_f1_w2_g1
R_t5_f2_g1
R_t5_f2_w1_g1
R_t5_f2_w2_g1
R_t5_v1_f1_p1
R_t5_v1_f1_p2
R_t5_v1_f1_p3
R_t5_v1_f2_p1
R_t5_v1_f2_p2
R_t5_v1_f2_p3
R_t5_v2_f1_p1
R_t5_v2_f1_p2
R_t5_v2_f1_p3
R_t5_v2_f2_p1
R_t5_v2_f2_p2
R_t5_v2_f2_p3
R_t5_w1_c1_g1
R_t5_w1_c2_g1
R_t5_w1_c3_g1
R_t5_w2_c1_g1
R_t5_w2_c2_g1
R_t5_w2_c3_g1
End
